
Gurobi 12.0.2 (win64) logging started Wed Jun  4 16:52:53 2025

Set parameter LogFile to value "C:\Ioana\_uni\honours\slp\algorithm\Main_files\results\others\fatty_acids\Task_003_Sample001_irr_gurobi.log"
Gurobi Optimizer version 12.0.2 build v12.0.2rc0 (win64 - Windows 11.0 (26100.2))

CPU model: Intel(R) Core(TM) Ultra 5 125H, instruction set [SSE2|AVX|AVX2]
Thread count: 14 physical cores, 18 logical processors, using up to 18 threads

Non-default parameters:
TimeLimit  2200

Optimize a model with 47226 rows, 34495 columns and 146682 nonzeros
Model fingerprint: 0x1fa2d395
Variable types: 17250 continuous, 17245 integer (17245 binary)
Coefficient statistics:
  Matrix range     [1e-04, 8e+04]
  Objective range  [2e-04, 9e-01]
  Bounds range     [1e+00, 1e+03]
  RHS range        [1e+00, 1e+00]
Presolve removed 30825 rows and 21542 columns
Presolve time: 0.49s
Presolved: 16401 rows, 12953 columns, 54574 nonzeros
Variable types: 6410 continuous, 6543 integer (6543 binary)

Root relaxation: objective 8.874810e-04, 70 iterations, 0.02 seconds (0.01 work units)

    Nodes    |    Current Node    |     Objective Bounds      |     Work
 Expl Unexpl |  Obj  Depth IntInf | Incumbent    BestBd   Gap | It/Node Time

     0     0    0.00089    0    2          -    0.00089      -     -    0s
H    0     0                       0.8874810    0.00089   100%     -    0s
     0     0     cutoff    0         0.88748    0.88748  0.00%     -    1s

Cutting planes:
  Cover: 2
  MIR: 2
  Flow cover: 2
  Flow path: 1
  Relax-and-lift: 1

Explored 1 nodes (3255 simplex iterations) in 1.26 seconds (0.98 work units)
Thread count was 18 (of 18 available processors)

Solution count 1: 0.887481 

Optimal solution found (tolerance 1.00e-04)
Best objective 8.874810482998e-01, best bound 8.874810482998e-01, gap 0.0000%

Gurobi 12.0.2 (win64) logging started Wed Jun  4 16:56:20 2025

Set parameter LogFile to value "C:\Ioana\_uni\honours\slp\algorithm\Main_files\results\others\fatty_acids\Task_003_Sample001_irr_gurobi.log"
Gurobi Optimizer version 12.0.2 build v12.0.2rc0 (win64 - Windows 11.0 (26100.2))

CPU model: Intel(R) Core(TM) Ultra 5 125H, instruction set [SSE2|AVX|AVX2]
Thread count: 14 physical cores, 18 logical processors, using up to 18 threads

Non-default parameters:
TimeLimit  2200

Optimize a model with 47226 rows, 34495 columns and 146682 nonzeros
Model fingerprint: 0x1fa2d395
Variable types: 17250 continuous, 17245 integer (17245 binary)
Coefficient statistics:
  Matrix range     [1e-04, 8e+04]
  Objective range  [2e-04, 9e-01]
  Bounds range     [1e+00, 1e+03]
  RHS range        [1e+00, 1e+00]
Presolve removed 30825 rows and 21542 columns
Presolve time: 0.51s
Presolved: 16401 rows, 12953 columns, 54574 nonzeros
Variable types: 6410 continuous, 6543 integer (6543 binary)

Root relaxation: objective 8.874810e-04, 70 iterations, 0.01 seconds (0.01 work units)

    Nodes    |    Current Node    |     Objective Bounds      |     Work
 Expl Unexpl |  Obj  Depth IntInf | Incumbent    BestBd   Gap | It/Node Time

     0     0    0.00089    0    2          -    0.00089      -     -    0s
H    0     0                       0.8874810    0.00089   100%     -    0s
     0     0     cutoff    0         0.88748    0.88748  0.00%     -    1s

Cutting planes:
  Cover: 2
  MIR: 2
  Flow cover: 2
  Flow path: 1
  Relax-and-lift: 1

Explored 1 nodes (3255 simplex iterations) in 1.28 seconds (0.98 work units)
Thread count was 18 (of 18 available processors)

Solution count 1: 0.887481 

Optimal solution found (tolerance 1.00e-04)
Best objective 8.874810482998e-01, best bound 8.874810482998e-01, gap 0.0000%

Gurobi 12.0.2 (win64) logging started Thu Jun  5 15:31:51 2025

Set parameter LogFile to value "C:\Ioana\_uni\honours\slp\algorithm\Main_files\results\others\fatty_acids\Task_003_Sample001_irr_gurobi.log"
Gurobi Optimizer version 12.0.2 build v12.0.2rc0 (win64 - Windows 11.0 (26100.2))

CPU model: Intel(R) Core(TM) Ultra 5 125H, instruction set [SSE2|AVX|AVX2]
Thread count: 14 physical cores, 18 logical processors, using up to 18 threads

Non-default parameters:
TimeLimit  2200

Optimize a model with 47226 rows, 34495 columns and 146682 nonzeros
Model fingerprint: 0x1fa2d395
Variable types: 17250 continuous, 17245 integer (17245 binary)
Coefficient statistics:
  Matrix range     [1e-04, 8e+04]
  Objective range  [2e-04, 9e-01]
  Bounds range     [1e+00, 1e+03]
  RHS range        [1e+00, 1e+00]
Presolve removed 30825 rows and 21542 columns
Presolve time: 0.48s
Presolved: 16401 rows, 12953 columns, 54574 nonzeros
Variable types: 6410 continuous, 6543 integer (6543 binary)

Root relaxation: objective 8.874810e-04, 70 iterations, 0.02 seconds (0.01 work units)

    Nodes    |    Current Node    |     Objective Bounds      |     Work
 Expl Unexpl |  Obj  Depth IntInf | Incumbent    BestBd   Gap | It/Node Time

     0     0    0.00089    0    2          -    0.00089      -     -    0s
H    0     0                       0.8874810    0.00089   100%     -    0s
     0     0     cutoff    0         0.88748    0.88748  0.00%     -    1s

Cutting planes:
  Cover: 2
  MIR: 2
  Flow cover: 2
  Flow path: 1
  Relax-and-lift: 1

Explored 1 nodes (3255 simplex iterations) in 1.28 seconds (0.98 work units)
Thread count was 18 (of 18 available processors)

Solution count 1: 0.887481 

Optimal solution found (tolerance 1.00e-04)
Best objective 8.874810482998e-01, best bound 8.874810482998e-01, gap 0.0000%

Gurobi 12.0.2 (win64) logging started Thu Jun  5 15:32:29 2025

Set parameter LogFile to value "C:\Ioana\_uni\honours\slp\algorithm\Main_files\results\others\fatty_acids\Task_003_Sample001_irr_gurobi.log"
Gurobi Optimizer version 12.0.2 build v12.0.2rc0 (win64 - Windows 11.0 (26100.2))

CPU model: Intel(R) Core(TM) Ultra 5 125H, instruction set [SSE2|AVX|AVX2]
Thread count: 14 physical cores, 18 logical processors, using up to 18 threads

Non-default parameters:
TimeLimit  2200

Optimize a model with 47226 rows, 34495 columns and 146682 nonzeros
Model fingerprint: 0x1fa2d395
Variable types: 17250 continuous, 17245 integer (17245 binary)
Coefficient statistics:
  Matrix range     [1e-04, 8e+04]
  Objective range  [2e-04, 9e-01]
  Bounds range     [1e+00, 1e+03]
  RHS range        [1e+00, 1e+00]
Presolve removed 30825 rows and 21542 columns
Presolve time: 0.54s
Presolved: 16401 rows, 12953 columns, 54574 nonzeros
Variable types: 6410 continuous, 6543 integer (6543 binary)

Root relaxation: objective 8.874810e-04, 70 iterations, 0.01 seconds (0.01 work units)

    Nodes    |    Current Node    |     Objective Bounds      |     Work
 Expl Unexpl |  Obj  Depth IntInf | Incumbent    BestBd   Gap | It/Node Time

     0     0    0.00089    0    2          -    0.00089      -     -    0s
H    0     0                       0.8874810    0.00089   100%     -    0s
     0     0     cutoff    0         0.88748    0.88748  0.00%     -    1s

Cutting planes:
  Cover: 2
  MIR: 2
  Flow cover: 2
  Flow path: 1
  Relax-and-lift: 1

Explored 1 nodes (3255 simplex iterations) in 1.32 seconds (0.98 work units)
Thread count was 18 (of 18 available processors)

Solution count 1: 0.887481 

Optimal solution found (tolerance 1.00e-04)
Best objective 8.874810482998e-01, best bound 8.874810482998e-01, gap 0.0000%

Gurobi 12.0.2 (win64) logging started Thu Jun  5 15:33:17 2025

Set parameter LogFile to value "C:\Ioana\_uni\honours\slp\algorithm\Main_files\results\others\fatty_acids\Task_003_Sample001_irr_gurobi.log"
Gurobi Optimizer version 12.0.2 build v12.0.2rc0 (win64 - Windows 11.0 (26100.2))

CPU model: Intel(R) Core(TM) Ultra 5 125H, instruction set [SSE2|AVX|AVX2]
Thread count: 14 physical cores, 18 logical processors, using up to 18 threads

Non-default parameters:
TimeLimit  2200

Optimize a model with 47226 rows, 34495 columns and 146682 nonzeros
Model fingerprint: 0x1fa2d395
Variable types: 17250 continuous, 17245 integer (17245 binary)
Coefficient statistics:
  Matrix range     [1e-04, 8e+04]
  Objective range  [2e-04, 9e-01]
  Bounds range     [1e+00, 1e+03]
  RHS range        [1e+00, 1e+00]
Presolve removed 30825 rows and 21542 columns
Presolve time: 0.54s
Presolved: 16401 rows, 12953 columns, 54574 nonzeros
Variable types: 6410 continuous, 6543 integer (6543 binary)

Root relaxation: objective 8.874810e-04, 70 iterations, 0.01 seconds (0.01 work units)

    Nodes    |    Current Node    |     Objective Bounds      |     Work
 Expl Unexpl |  Obj  Depth IntInf | Incumbent    BestBd   Gap | It/Node Time

     0     0    0.00089    0    2          -    0.00089      -     -    0s
H    0     0                       0.8874810    0.00089   100%     -    0s
     0     0     cutoff    0         0.88748    0.88748  0.00%     -    1s

Cutting planes:
  Cover: 2
  MIR: 2
  Flow cover: 2
  Flow path: 1
  Relax-and-lift: 1

Explored 1 nodes (3255 simplex iterations) in 1.36 seconds (0.98 work units)
Thread count was 18 (of 18 available processors)

Solution count 1: 0.887481 

Optimal solution found (tolerance 1.00e-04)
Best objective 8.874810482998e-01, best bound 8.874810482998e-01, gap 0.0000%
